c CNF file corresponding to a (partial) station packing problem.
p cnf 2537 184
1 2 3 4 5 6 7 8 9 10 11 12 13 14 0
-1 -2 0
-1 -3 0
-1 -4 0
-1 -5 0
-1 -6 0
-1 -7 0
-1 -8 0
-1 -9 0
-1 -10 0
-1 -11 0
-1 -12 0
-1 -13 0
-1 -14 0
-2 -3 0
-2 -4 0
-2 -5 0
-2 -6 0
-2 -7 0
-2 -8 0
-2 -9 0
-2 -10 0
-2 -11 0
-2 -12 0
-2 -13 0
-2 -14 0
-3 -4 0
-3 -5 0
-3 -6 0
-3 -7 0
-3 -8 0
-3 -9 0
-3 -10 0
-3 -11 0
-3 -12 0
-3 -13 0
-3 -14 0
-4 -5 0
-4 -6 0
-4 -7 0
-4 -8 0
-4 -9 0
-4 -10 0
-4 -11 0
-4 -12 0
-4 -13 0
-4 -14 0
-5 -6 0
-5 -7 0
-5 -8 0
-5 -9 0
-5 -10 0
-5 -11 0
-5 -12 0
-5 -13 0
-5 -14 0
-6 -7 0
-6 -8 0
-6 -9 0
-6 -10 0
-6 -11 0
-6 -12 0
-6 -13 0
-6 -14 0
-7 -8 0
-7 -9 0
-7 -10 0
-7 -11 0
-7 -12 0
-7 -13 0
-7 -14 0
-8 -9 0
-8 -10 0
-8 -11 0
-8 -12 0
-8 -13 0
-8 -14 0
-9 -10 0
-9 -11 0
-9 -12 0
-9 -13 0
-9 -14 0
-10 -11 0
-10 -12 0
-10 -13 0
-10 -14 0
-11 -12 0
-11 -13 0
-11 -14 0
-12 -13 0
-12 -14 0
-13 -14 0
2524 2525 2526 2527 2528 2529 2530 2531 2532 2533 2534 2535 2536 2537 0
-2524 -2525 0
-2524 -2526 0
-2524 -2527 0
-2524 -2528 0
-2524 -2529 0
-2524 -2530 0
-2524 -2531 0
-2524 -2532 0
-2524 -2533 0
-2524 -2534 0
-2524 -2535 0
-2524 -2536 0
-2524 -2537 0
-2525 -2526 0
-2525 -2527 0
-2525 -2528 0
-2525 -2529 0
-2525 -2530 0
-2525 -2531 0
-2525 -2532 0
-2525 -2533 0
-2525 -2534 0
-2525 -2535 0
-2525 -2536 0
-2525 -2537 0
-2526 -2527 0
-2526 -2528 0
-2526 -2529 0
-2526 -2530 0
-2526 -2531 0
-2526 -2532 0
-2526 -2533 0
-2526 -2534 0
-2526 -2535 0
-2526 -2536 0
-2526 -2537 0
-2527 -2528 0
-2527 -2529 0
-2527 -2530 0
-2527 -2531 0
-2527 -2532 0
-2527 -2533 0
-2527 -2534 0
-2527 -2535 0
-2527 -2536 0
-2527 -2537 0
-2528 -2529 0
-2528 -2530 0
-2528 -2531 0
-2528 -2532 0
-2528 -2533 0
-2528 -2534 0
-2528 -2535 0
-2528 -2536 0
-2528 -2537 0
-2529 -2530 0
-2529 -2531 0
-2529 -2532 0
-2529 -2533 0
-2529 -2534 0
-2529 -2535 0
-2529 -2536 0
-2529 -2537 0
-2530 -2531 0
-2530 -2532 0
-2530 -2533 0
-2530 -2534 0
-2530 -2535 0
-2530 -2536 0
-2530 -2537 0
-2531 -2532 0
-2531 -2533 0
-2531 -2534 0
-2531 -2535 0
-2531 -2536 0
-2531 -2537 0
-2532 -2533 0
-2532 -2534 0
-2532 -2535 0
-2532 -2536 0
-2532 -2537 0
-2533 -2534 0
-2533 -2535 0
-2533 -2536 0
-2533 -2537 0
-2534 -2535 0
-2534 -2536 0
-2534 -2537 0
-2535 -2536 0
-2535 -2537 0
-2536 -2537 0
